4 
5  42 
6  12 27 42 49 57 
7  05 12 20 27 35 42 50 57 
8  05 12 20 27 35 42 50 57 
9  05 12 20 27 35 42 50 57 
10  05 12 20 27 35 42 50 57 
11  05 12 20 27 35 42 50 57 
12  05 12 20 27 35 42 50 57 
13  05 12 20 27 36 43 51 58 
14  06 13 21 28 36 43 51 58 
15  06 13 21 28 36 43 51 58 
16  06 13 21 28 36 43 51 58 
17  06 13 21 28 36 43 51 58 
18  06 13 21 28 36 43 51 58 
19  06 13 21 28 35 42 50 57 
20  05 12 20 27 35 42 50 57 
21  08 23 38 53 
22  08 23 37 52 
23  03 17 32 47 
0  02 
1 
